NAME: random-45-6312
TYPE: TSP
COMMENT: size=45 seed=6312
DIMENSION: 92
EDGE_WEIGHT_TYPE: EUC_2D
NODE_COORD_SECTION
+0 784 678
-0 784 678
+1 946 710
-1 216 188
+2 287 555
-2 540 614
+3 989 58
-3 905 15
+4 332 392
-4 340 557
+5 691 630
-5 309 800
+6 93 821
-6 628 567
+7 217 545
-7 249 642
+8 312 851
-8 758 559
+9 977 710
-9 663 170
+10 31 617
-10 649 347
+11 856 114
-11 194 544
+12 41 546
-12 126 31
+13 396 983
-13 667 530
+14 398 250
-14 874 582
+15 894 744
-15 362 77
+16 43 437
-16 511 212
+17 782 241
-17 456 744
+18 164 160
-18 959 611
+19 123 780
-19 118 661
+20 305 551
-20 548 97
+21 744 309
-21 151 82
+22 436 600
-22 919 725
+23 455 551
-23 667 259
+24 545 927
-24 403 141
+25 335 273
-25 388 461
+26 154 320
-26 816 288
+27 397 586
-27 598 291
+28 940 166
-28 352 818
+29 128 214
-29 399 63
+30 742 533
-30 682 591
+31 897 456
-31 16 802
+32 645 556
-32 998 475
+33 228 724
-33 859 943
+34 202 787
-34 570 73
+35 652 862
-35 286 839
+36 910 220
-36 615 293
+37 143 171
-37 848 874
+38 275 308
-38 943 339
+39 215 950
-39 179 316
+40 468 343
-40 977 786
+41 443 251
-41 916 616
+42 132 525
-42 796 198
+43 349 375
-43 472 98
+44 341 364
-44 255 633
+45 838 166
-45 282 808
PRECEDENCE_SECTION
+0 -0
+1 -1
+2 -2
+3 -3
+4 -4
+5 -5
+6 -6
+7 -7
+8 -8
+9 -9
+10 -10
+11 -11
+12 -12
+13 -13
+14 -14
+15 -15
+16 -16
+17 -17
+18 -18
+19 -19
+20 -20
+21 -21
+22 -22
+23 -23
+24 -24
+25 -25
+26 -26
+27 -27
+28 -28
+29 -29
+30 -30
+31 -31
+32 -32
+33 -33
+34 -34
+35 -35
+36 -36
+37 -37
+38 -38
+39 -39
+40 -40
+41 -41
+42 -42
+43 -43
+44 -44
+45 -45
EOF
